NAME : netgen20-5-5
COMMENT : Generated using the function generateClusteredNetwork from the R-package netgen (Bossek,2015) - Number of clusters: 5
TYPE : TSP
DIMENSION : 20
EDGE_WEIGHT_TYPE : EUC_2D
NODE_COORD_SECTION
1 6.4586794994 39.1348955828
2 5.6471608625 37.8200205466
3 0.089258776 39.8008310187
4 4.944124199 30.7958944055
5 46.2702415613 83.7019875583
6 54.7365197733 81.2731361456
7 41.1446278038 77.1629341824
8 39.6523701829 94.7522922154
9 69.5726771348 53.5958262404
10 67.9567461945 62.2468978209
11 68.142153284 66.758924055
12 65.672123142 56.4451571142
13 96.6120440742 1.1446460427
14 77.1942451207 14.8006482979
15 91.7346590412 5.7004446646
16 87.6265185489 15.6845399125
17 30.4028226399 60.611388064
18 31.7758625188 68.4671234577
19 27.417881614 61.4406574929
20 26.2767676426 61.3878819044
EOF
